33D32945 STP File, STP Format Version 1.0

SECTION Comment
Name    "i080-205"
Creator "Cees Duin"
Remark  "Incidence graph"
END

SECTION Graph
Nodes 80
Edges 120
E 1 24 202
E 1 41 197
E 1 48 200
E 1 73 198
E 1 74 196
E 2 13 309
E 2 24 200
E 2 67 210
E 2 75 202
E 2 80 195
E 3 41 200
E 3 66 203
E 4 31 198
E 4 50 204
E 5 19 197
E 6 53 204
E 7 74 198
E 8 48 204
E 8 55 198
E 8 75 193
E 9 75 196
E 10 11 299
E 11 43 197
E 11 61 195
E 11 66 201
E 12 14 303
E 12 38 193
E 12 52 198
E 12 60 192
E 13 46 201
E 13 48 196
E 13 61 200
E 13 66 196
E 13 79 196
E 14 21 195
E 15 24 202
E 15 75 201
E 15 77 196
E 15 78 201
E 16 21 203
E 17 24 101
E 17 52 108
E 17 79 95
E 17 80 100
E 18 48 99
E 19 20 89
E 19 62 102
E 19 74 95
E 20 22 100
E 20 48 102
E 20 54 103
E 21 48 97
E 21 74 96
E 22 75 100
E 23 37 101
E 24 26 106
E 24 53 106
E 24 64 94
E 25 77 103
E 26 58 103
E 26 78 97
E 27 37 107
E 27 69 101
E 28 46 107
E 28 52 105
E 29 41 98
E 29 55 102
E 30 53 103
E 31 44 99
E 31 70 101
E 32 38 100
E 32 69 108
E 33 35 104
E 33 66 99
E 34 45 107
E 34 79 94
E 35 47 102
E 35 77 95
E 36 64 103
E 36 69 97
E 36 72 101
E 37 50 99
E 37 77 99
E 38 42 99
E 39 47 97
E 40 44 102
E 40 54 95
E 40 65 94
E 42 48 95
E 42 51 99
E 42 65 108
E 43 56 99
E 43 64 99
E 45 52 100
E 47 72 100
E 47 75 99
E 49 56 95
E 49 69 102
E 49 73 104
E 51 55 96
E 53 56 100
E 53 60 99
E 54 60 104
E 54 65 108
E 54 71 99
E 54 79 107
E 56 57 102
E 58 64 100
E 59 64 101
E 61 69 95
E 62 71 101
E 62 80 102
E 63 76 98
E 64 76 101
E 66 67 94
E 66 78 94
E 68 76 97
E 68 79 101
E 70 78 108
E 70 80 94
END

SECTION Terminals
Terminals 16
T 1
T 2
T 3
T 4
T 5
T 6
T 7
T 8
T 9
T 10
T 11
T 12
T 13
T 14
T 15
T 16
END

EOF
